3 5 2.0
3 2 1 117 2 125 2 4 140 2 130 2 4 150 5 160 
3 2 1 214 3 150 2 3 55 2 66 2 5 78 3 65 
3 2 1 87 2 62 2 4 70 3 80 2 4 190 5 100 
2 26 37 68 23 140 175 
2 16 23 73 32 119 169 
2 12 19 69 47 99 165 
2 30 20 118 47 168 246 
2 24 25 60 44 103 152 
